instances/project.9.dat
n = 9;


p =
  [
    [1   0   41  3   55  0   0   0   0  ]
    [42  28  30  0   0   0   0   0   0  ]
    [0   8   47  0   0   0   0   45  0  ]
    [1   0   8   13  12  13  0   0   53 ]
    [0   0   0   30  0   0   0   21  49 ]
    [0   0   14  0   86  0   0   0   0  ]
    [37  0   0   0   10  0   0   53  0  ]
    [54  5   0   0   0   0   0   0   41 ]
    [0   0   0   0   52  0   0   0   48 ]
  ];
