instances/project.9.sol
OBJECTIVE: 289

Slot 1
1 white, 13 black
2 white, 16 black
3 white, 19 black
4 white, 14 black
7 white, 5 black
6 white, 18 black
12 white, 8 black
11 white, 9 black
17 white, 10 black

Slot 2
6 white, 1 black
2 white, 15 black
5 white, 3 black
9 white, 4 black
14 white, 7 black
10 white, 8 black
12 white, 11 black
17 white, 13 black
19 white, 16 black

Slot 3
1 white, 14 black
8 white, 2 black
7 white, 3 black
6 white, 4 black
9 white, 5 black
11 white, 10 black
13 white, 12 black
16 white, 15 black
18 white, 17 black

Slot 4
1 white, 12 black
7 white, 2 black
8 white, 3 black
4 white, 19 black
6 white, 16 black
17 white, 9 black
18 white, 10 black
14 white, 11 black
15 white, 13 black

Slot 5
4 white, 2 black
3 white, 15 black
5 white, 19 black
6 white, 17 black
7 white, 18 black
11 white, 8 black
10 white, 9 black
14 white, 12 black
16 white, 13 black

Slot 6
2 white, 1 black
3 white, 14 black
13 white, 4 black
8 white, 5 black
12 white, 6 black
7 white, 19 black
18 white, 9 black
15 white, 11 black
17 white, 16 black

Slot 7
4 white, 1 black
5 white, 2 black
3 white, 18 black
9 white, 6 black
8 white, 7 black
15 white, 10 black
13 white, 11 black
19 white, 12 black
16 white, 14 black

Slot 8
5 white, 1 black
2 white, 13 black
11 white, 3 black
8 white, 4 black
15 white, 6 black
7 white, 17 black
14 white, 9 black
12 white, 10 black
19 white, 18 black

Slot 9
1 white, 19 black
2 white, 17 black
12 white, 3 black
4 white, 15 black
11 white, 5 black
10 white, 6 black
9 white, 7 black
13 white, 8 black
18 white, 16 black

Slot 10
7 white, 1 black
11 white, 2 black
3 white, 17 black
12 white, 4 black
5 white, 18 black
14 white, 6 black
15 white, 8 black
9 white, 19 black
16 white, 10 black

Slot 11
8 white, 1 black
4 white, 3 black
12 white, 5 black
13 white, 6 black
10 white, 7 black
16 white, 9 black
18 white, 11 black
17 white, 14 black
19 white, 15 black

Slot 12
1 white, 16 black
9 white, 2 black
3 white, 13 black
4 white, 17 black
5 white, 15 black
6 white, 19 black
12 white, 7 black
8 white, 18 black
14 white, 10 black

Slot 13
1 white, 15 black
2 white, 12 black
3 white, 16 black
4 white, 18 black
6 white, 5 black
9 white, 8 black
13 white, 10 black
17 white, 11 black
19 white, 14 black

Slot 14
1 white, 18 black
2 white, 14 black
9 white, 3 black
4 white, 16 black
13 white, 5 black
11 white, 7 black
17 white, 8 black
19 white, 10 black
15 white, 12 black

Slot 15
9 white, 1 black
3 white, 2 black
10 white, 4 black
5 white, 16 black
7 white, 6 black
19 white, 11 black
17 white, 12 black
14 white, 13 black
18 white, 15 black

Slot 16
1 white, 11 black
2 white, 19 black
10 white, 3 black
5 white, 4 black
8 white, 6 black
16 white, 7 black
13 white, 9 black
18 white, 14 black
17 white, 15 black

Slot 17
1 white, 17 black
10 white, 2 black
6 white, 3 black
11 white, 4 black
14 white, 5 black
15 white, 7 black
8 white, 19 black
16 white, 12 black
18 white, 13 black

Slot 18
10 white, 1 black
6 white, 2 black
7 white, 4 black
5 white, 17 black
14 white, 8 black
15 white, 9 black
16 white, 11 black
18 white, 12 black
19 white, 13 black

Slot 19
3 white, 1 black
2 white, 18 black
10 white, 5 black
11 white, 6 black
13 white, 7 black
16 white, 8 black
12 white, 9 black
15 white, 14 black
19 white, 17 black




